(set-logic QF_SLIA)
(declare-fun var0 () String)
(assert (str.in_re var0 (re.++ ((_ re.loop 18 615) (re.++ (re.union (str.to_re "#") (re.union (str.to_re "H4") (re.union (str.to_re "F") (str.to_re "FV")))) (re.++ (re.union (str.to_re "6H") (re.union (str.to_re "kb") (re.union (str.to_re "L/G") (str.to_re "yo$")))) (re.++ (re.union (str.to_re "=") (re.union (str.to_re "m") (re.union (str.to_re "!") (str.to_re "T")))) (re.union (str.to_re "Tc]") (re.union (str.to_re "|I") (re.union (str.to_re "4x") (str.to_re "H")))))))) (re.++ ((_ re.loop 15 332) (re.++ (re.union (str.to_re "8") (re.union (str.to_re "s") (re.union (str.to_re ")<h") (str.to_re "t5D")))) (re.++ (re.union (str.to_re "GWh") (re.union (str.to_re "&p") (re.union (str.to_re "Qd") (str.to_re "j6")))) (re.++ (re.union (str.to_re "VyO") (re.union (str.to_re "ngq") (re.union (str.to_re "vG0") (str.to_re "Q+'")))) (re.union (str.to_re "TC") (re.union (str.to_re "b") (re.union (str.to_re "+Q") (str.to_re ".GE")))))))) (re.++ ((_ re.loop 3 557) (re.++ (re.union (str.to_re "k)") (re.union (str.to_re ".&") (re.union (str.to_re "U") (str.to_re "FCn")))) (re.++ (re.union (str.to_re "*s$") (re.union (str.to_re "QO") (re.union (str.to_re "X") (str.to_re "7^")))) (re.++ (re.union (str.to_re "!") (re.union (str.to_re "h@[") (re.union (str.to_re "d") (str.to_re "\\`Y")))) (re.union (str.to_re "4") (re.union (str.to_re "!'") (re.union (str.to_re "Z") (str.to_re "{")))))))) ((_ re.loop 17 504) (re.++ (re.union (str.to_re "*.") (re.union (str.to_re "t/X") (re.union (str.to_re "hz") (str.to_re "H")))) (re.++ (re.union (str.to_re "[-G") (re.union (str.to_re "F$.") (re.union (str.to_re "M?L") (str.to_re "y0")))) (re.++ (re.union (str.to_re "|2") (re.union (str.to_re "LNJ") (re.union (str.to_re "h{") (str.to_re "S7)")))) (re.union (str.to_re "G<(") (re.union (str.to_re "KSA") (re.union (str.to_re "ErE") (str.to_re "oo#")))))))))))))
(assert (not (str.in_re var0 (re.++ ((_ re.loop 19 384) (re.++ (re.union (str.to_re "\u0022C=") (re.union (str.to_re "-v&") (re.union (str.to_re "-1") (str.to_re "L\\L")))) (re.++ (re.union (str.to_re ";2") (re.union (str.to_re "&2k") (re.union (str.to_re "2") (str.to_re "|")))) (re.++ (re.union (str.to_re ">)^") (re.union (str.to_re "|d") (re.union (str.to_re "$ty") (str.to_re "<f")))) (re.union (str.to_re "{Kg") (re.union (str.to_re "r$") (re.union (str.to_re "Ic@") (str.to_re "`0d")))))))) (re.++ ((_ re.loop 1 231) (re.++ (re.union (str.to_re "K") (re.union (str.to_re "46{") (re.union (str.to_re ">") (str.to_re "Lnd")))) (re.++ (re.union (str.to_re "E1+") (re.union (str.to_re "P") (re.union (str.to_re "F7)") (str.to_re ",GR")))) (re.++ (re.union (str.to_re "`'") (re.union (str.to_re "~i") (re.union (str.to_re "4") (str.to_re "L")))) (re.union (str.to_re "X$j") (re.union (str.to_re "iD") (re.union (str.to_re "\u0022R)") (str.to_re "#(>")))))))) (re.++ ((_ re.loop 0 342) (re.++ (re.union (str.to_re "%<6") (re.union (str.to_re "9") (re.union (str.to_re "4Z") (str.to_re "ty>")))) (re.++ (re.union (str.to_re "r") (re.union (str.to_re "[@k") (re.union (str.to_re "DzU") (str.to_re "Ih")))) (re.++ (re.union (str.to_re "4") (re.union (str.to_re "?/") (re.union (str.to_re "A<:") (str.to_re "O")))) (re.union (str.to_re "/3m") (re.union (str.to_re "v") (re.union (str.to_re "A") (str.to_re "q")))))))) ((_ re.loop 18 326) (re.++ (re.union (str.to_re "A&~") (re.union (str.to_re "e") (re.union (str.to_re "R") (str.to_re ")")))) (re.++ (re.union (str.to_re "E") (re.union (str.to_re "5T") (re.union (str.to_re "b-_") (str.to_re "[2q")))) (re.++ (re.union (str.to_re "{8") (re.union (str.to_re "?0") (re.union (str.to_re ":V") (str.to_re "6nZ")))) (re.union (str.to_re "W") (re.union (str.to_re "r\\E") (re.union (str.to_re "dQg") (str.to_re "M"))))))))))))))
(assert (not (str.in_re var0 (re.++ (re.* re.allchar) (re.++ (re.union (str.to_re "<") (re.union (str.to_re ">") (re.union (str.to_re "'") (re.union (str.to_re "\u0022") (str.to_re "&"))))) (re.* re.allchar))))))
(assert (<= 50 (str.len var0)))
(check-sat)
(get-model)
